10
0 98 70 19 54 69 25 91 52 54 
100 0 33 38 100 96 36 92 49 42 
85 62 0 2 3 68 60 68 61 16 
84 9 20 0 1 93 83 64 100 18 
54 41 16 57 0 53 60 40 97 31 
54 45 74 22 79 0 14 43 40 5 
73 20 72 76 3 54 0 11 28 19 
84 51 85 91 27 43 66 0 95 7 
89 54 50 3 85 30 19 83 0 10 
11 68 93 26 11 57 22 9 29 0 
